1656564852599645491501,14,1,2,08,4,1,2,06,5,1,2,02,11,1,2,011,10,1,2,02,15,1,2,05,2,1,2,05,14,1,2,02,13,1,2,010,13,1,2,015,12,1,2,014,15,1,2,03,14,1,2,03,14,1,2,07,10,1,2,06,14,1,2,012,9,1,2,04,15,1,2,015,13,1,2,09,10,1,2,010,15,1,2,015,10,1,2,07,4,1,2,04,14,1,2,02,1,1,2,07,4,1,2,011,6,1,2,06,3,1,2,012,1,1,2,01,7,1,2,06,7,1,2,03,7,1,2,07,13,1,2,015,2,1,2,02,2,1,2,011,13,1,2,06,15,1,2,012,11,1,2,01,13,1,2,07,3,1,2,01,2,1,2,09,13,1,2,07,3,1,2,010,8,1,2,05,2,1,2,03,7,1,2,010,5,1,2,015,2,1,2,07,10,1,2,02,4,1,2,0